
 102   30
  10   10   10   10   10   10   10   10   10   10   10   10   10   10   10   10   10   10   10   10   10   10   10   10   10   10   10   10   10   10

   0   0   0   0   0   0   0   0   0   0   0   0   0   0   0   0   0   0   0   0   0   0   0   0   0   0   0   0   0   0   0  27 2 3 4 5 6 7 8 9 10 12 13 15 16 17 18 19 21 22 23 24 26 27 28 30 35 38 40 
   3   4   0   0   0   0   0   0   0   0   0   0   0   3   0   2   0   0   0   0   0   0   0   0   0   1   0   0   0   0   0  12 101 68 63 55 45 41 37 31 29 20 14 11 
   6   0   0   1   0   0   0   0   4   0   0   0   0   0   0   0   0   0   0   0   0   0   0   0   0   0   0   0   0   0   1  15 101 100 99 97 70 69 65 58 57 56 48 47 44 32 29 
   1   0   0   0   0   0   0   0   0   0   0   0   0   0   0   0   0   0   0   0   1   1   0   0   0   0   0   0   0   1   5  13 74 66 62 57 55 54 49 48 47 43 42 37 31 
   1   3   0   0   0   0   0   0   0   0   0   0   0   0   0   7   0   0   0   0   0   7   0   0   1   4   0   0   0   5   0  14 100 73 69 68 66 62 57 55 54 51 49 37 36 31 
   6   0   0   0   0   0   0   0   0   0   0   0   0   0   0   0   0   0   3   0   0   0   0   0   0   0   0   0   3   0   0  13 98 74 69 68 62 51 50 49 47 46 36 33 31 
   8   0   0   0   0   0   0   0   0   1   0   0   0   5   4   0   0   0   0   0   0   0   1   0   0   0   0   0   0   0   0  18 101 100 99 97 92 75 73 71 69 67 64 61 58 56 54 49 46 37 
  10   0   0   0   0   0   3   0   0   0   0   0   1   0   0   0   0   0   0   0   0   0   0   0   0   0   0   1   0   8   0  12 100 97 71 70 69 62 59 56 52 51 43 25 
   9   4   1   0   0   0   0   2   0   0   0   0   0   0   0   0   0   0   0   0   7   0   4   0   0   0   0   0   0   5   0  21 100 99 98 97 95 93 73 69 68 67 62 61 58 57 54 52 50 49 47 45 41 
   6   0   0   0   0   0   0   0   0   0   1   0   0   0   0   0   0   0   0   0   0   7   0   1   0   0   0   0   0   0   0  17 101 100 98 95 75 72 70 68 67 66 63 59 58 57 52 44 32 
   8   0   0   0   0   0   0   0   0   0   0   0   0   0   0   0   0   2   0   0   0   0   0   0   5   0   0   0   0   0   0  15 100 99 98 97 93 70 69 64 56 54 53 51 46 44 39 
   6   0   0   8   0   0   9   0   0   0   0   1   0   0   0   0   0   0   0   0   0   0   0   0   0   0   0   0   0   0   0  14 99 98 96 93 75 73 66 55 54 53 51 50 43 34 
   4   5   0   0   0   0  10   0   0   0   0   0   0   0   0   0   0   0   0   0   0   0   0   0   0  10   0   0   9   0   0  11 97 72 66 62 55 53 49 46 45 43 31 
   4   0   6   0   1   4   0   0   0   0   0   0   0   7   0   0   0   0   0   0   0   0   0   0   0   0   1   0   0   0   0  17 97 92 75 73 72 67 66 62 61 58 54 53 51 50 48 47 46 
   1   0   0   0   0   0   0   0   0   0   3   6   6   0   0   0   0   0   0   0   8   0   0   0   5   0   0   9   0   0   0  20 101 100 99 97 95 94 91 73 72 70 69 67 66 65 59 58 57 56 48 45 
   3   0   0   0  10   0   0   0   0   0   0   0   0   0   0   0   0   0   0   0   0   0   0   0   0   0   0   0  10   0   0  11 97 92 70 67 66 64 60 52 49 44 37 
   7   7   0   0   6   3   0   0   0   0   0   6   0   0   0   0   0   0   0   0   0   0   0   0   0   0   0   0   0   0   0  15 101 91 87 85 73 72 71 70 67 65 61 60 55 50 42 
   5   0   0   0   0   0   0   0   0   0   0   0   0   0   0   0   0   0   0   0   0   0   0   0   0   0   0   0   0   0   0  17 100 96 95 92 91 84 74 73 70 67 65 64 61 59 57 49 48 
   3   0   0   0   0   0   0   0   0   5   0   0   0   0   0   0   0   0   0   0   0   0   0   0   0   0  10   0   0   0   5  11 98 94 92 88 74 72 64 62 58 54 33 
   1   0   0   0   0   0   0   3   0   0   0   0   0   0   2   0   0   0   4   0   0   5   8   0   0   8   0   0   0   0   0  17 97 96 93 92 91 88 72 71 69 65 60 59 58 57 50 49 47 
   4   0   0   0   0   0   0   0   0   8   0   0   0   0   0   0   0   0  10   0   4   0   0   0   0   4   7   0   0   0   9  16 101 99 98 97 95 93 75 74 72 67 65 64 60 59 54 44 
   6   0   0   0   0   0   4   0   0   0   0   0   0   0   0   0   0   5   0   0   0   0   0   0   7   0   0  10   0   0   0   8 101 98 95 60 58 50 46 42 
   7   6   0   0   0   0   0   0   0   0   9   0   0   0   6   5   0   0   0   0   0   0   0   0   0   0   0   0   0   0   0  17 99 97 96 95 92 87 86 71 66 65 64 61 60 59 54 51 49 
   6   3   6   0   0   0   0   6   0   0   0   0   0   0   0   0   1   0   0   0   9   4   0   0   8   0   0   0   5   0   0  13 101 98 97 95 93 92 86 68 65 59 52 47 44 
   1   0   0   0   0   4   0   0   0   0   0   0   0   0   0   7   0   0   8   2   0   5   0   0   0   0   0   0   0   0   0  18 98 95 93 92 91 90 87 80 73 72 68 67 66 65 64 61 57 50 
   1   0   0   0   7   0   0   0   0   0   0   6   7   0   0   0   0   0   0   0   0   0   0   3   0   0   0   0   0   0   0  16 97 95 94 93 90 89 88 87 86 82 71 66 62 58 56 46 
   8   0   0   0   0   0   0   0   5   0   0   0   0   0   0   0   0  10   0   0   2   7   5   0   0   0   0   0   4   0   0  16 100 98 97 95 92 86 80 72 70 68 65 64 61 59 57 50 
   4  10   0   0   0   0   0   0   0   0   0   0   6   9   0   7   0   4   8   0   0   0   0   0   0   0   0   0   0   0   0  13 98 95 92 90 88 87 86 75 71 64 58 52 46 
   1   0   0   0   8   0   3   0   0   0   0   0   0   0   0   0   0   0   0   0   0   0   0   9   0   0   0   0   0   0   0  16 98 96 94 93 91 88 86 83 81 80 78 72 71 66 64 53 
   4   0  10   0   0   6   0   0   0   0   0   0   0   0   0   0   0   0   5   0   0   0   0   0   0   0   0   0   0   0   0  11 93 92 90 88 87 75 73 72 69 64 46 
   6   7   0   0   0   0   0   0   0   6   0   0   8   0   0   0   9   0   5   4   0   0   0   7   0   0   0   0   0   0   0  14 99 96 95 93 92 90 88 86 83 71 64 60 59 58 
   7   0   0   0   0   0   0   8   0   4   0   0   0   0   0   0   0   0   0   0   0   9   0   0   0   5   0   0   0   0   0  13 96 92 91 90 89 85 82 78 74 73 71 62 55 
   6   0   0   0   0   0   0   0   5   9   0   0   0   0   0   7   0   0   0   0   4   0   0   0   0   0   0   0   8   0   0  14 99 97 95 93 90 85 84 83 80 79 73 71 67 59 
   9   0   0   0   0   5   0   0   0   0   1   0   0   0   0   0   0   0   0   0   0   0   0   0   0   0   0   0   0   0   0  13 97 95 91 90 87 84 83 71 69 65 64 60 58 
   8   0   0   0   5  10   9   0   0   0   0   0   6   1   0   0   7   0   0   0   8   0   0   0   0   0   0   0   0   0   0  12 101 99 91 86 84 80 74 71 68 67 64 58 
   7   0   0   0   0   0   0   0   3   0   0   0   0   0   0   0   0   0   0   0   0   0   0   0   0   0   0   0   0   0   0  12 97 96 94 91 90 83 80 72 70 65 64 59 
  10   0   0   0   0  10   0   0   6   0   9   0   0   0   0   0   0   0   0   0   0   0   0   0   0   0   3   0   0   0   0  11 98 95 93 88 86 85 80 79 72 65 53 
  10   6   3   0   0   0   8   5   0   0   0   0   2   0   6   0   0   0   0   0   0   0   0   0   0   0   8   0   0   5   0  15 100 99 95 93 92 84 83 82 80 79 78 76 74 73 66 
  10   0   5   0  10   0   0   0   0   4   8   0   0   0   0   0   0   6   0   6   0   0   0   0   6   0   0   0   0   0   0  14 92 91 90 88 82 81 80 79 78 77 76 74 73 72 
   2   0   0   0   0   0   0   0   0   0   0   7   8   0   0   0   8   8   0   0   9   0   0   0   0   0   0   7   0   0   0  14 100 99 98 92 90 88 87 86 85 84 83 78 77 59 
   5   0   0   0   0   0   0   0   0   0   8   7   0   0   4   0   0   9   0   0   0   0   0   0   0   6   7   0   0   0   0  11 92 91 90 87 85 83 81 78 77 64 59 
   3   7   0   0   0   0   0   5   0   0   5   0   0   0   0   0   0   0   0   0   0   0   0   0   0   0   0   3   0  10   0  11 100 99 97 93 92 90 88 86 83 78 59 
   3   0   0   0   0   0   0   0   0   0   5   0   0   0   0   0   0   0   0   0   0   0   0   0   0   0   0   6   0   0   0   8 95 92 89 86 77 68 64 61 
  10   0   0   6   0   0   0   0   0   0   0   0   0   9   0   0   0   0   0   0   0   0   0   0   0   0   0   0   0   0   7   6 94 91 85 76 71 61 
   6   0   0   0   3   0   0   0   0   0   0   0   0  10   0   0   0   0   0  10   0   0   0   0   0   0   0   0   0   0   0   6 90 88 87 82 71 60 
   8   0  10   0   0   0   0   0   0   0   0   0   0   0   0   0   0   0   0   0   6   0   0   8   0   0   0   7   0   0   0   5 96 91 80 65 57 
   5   0   0   0   0   0   0   0   0   0   0   0   0   0   0   0   0   0   0   0   0   0   0   0   0   0   0   6   0   0   0   5 87 84 80 77 64 
   9   0   0   0   0   0   0   0   0   0   0   0   7   0   0   0   8   4   0   0   0   0   0   0   6   0   0   0   0   7   0   4 93 81 77 60 
   3   0   0   0   5   0   0   0   0   0   6   0   0   0   0   2   0   0   0   0   0   0   0   0   0   0   0   0   0   0   4   6 94 90 83 81 80 79 
   2   7   0   0   0   0   0   0   0   0   0   7   0   0   0   0   0   0   0   0   3   0   9   9   0   0   0   0   0   5   0   6 94 89 84 83 82 77 
   4   0   0   0   6   0   3   0   0   0   0   0   0   0   0   0   3   0   5   0   0   0   0   0   0   0   0   7   0   0   0   6 90 85 84 80 77 76 
   8   0   0   0   0   0   0   0   0   0   0   9   0   0   0   0   0   5   0   0   0   0   0   0   0   0   0   0   0   0   7   6 96 82 80 79 77 76 
   5   0  10   9   0   0   0   7   0   0   0   0   6   0   0   0   0   0   0   0   0   8   0   0  10   0   0   2   0   9   0   3 87 77 59 
   8   0   0   0   0   9   0   0   0   0   0   9   0   0   0   0   0   0   0   8   0   0   0   0   0   0   0   0   0   0   0   5 91 84 82 81 76 
   6   0   0   0   0   4   0   0   0   0   0   8   0   0   0   0   0   0   5  10   0   0   0   8   0   0   0   6   0   0   0   3 80 77 64 
   4   0   0   0   6   0   0   0   0   0   0   0   0   0   0   0   0   0   0   0   0   0   9   0   0   0   9   0   0   0   0   2 78 60 
   4   0   0   0   6   0   0   0   5   0   8   0   0   0   0   0   0   0   0   0   0   0   0   0   0   8   0   0   0   0   0   4 85 83 81 78 
   9   0   0   0   0   0   0   0   0   0   7   0   0   0   5   0   0   0   6   0   0   8   0   0   0   0   0   0   0   0   0   4 85 81 79 78 
   2   0   0   0   0   0   0   0   0   0   0   0   0   0   0   8   0   0   0   0   0   0   4   0   0   0   0   5   0   0   0   3 89 82 76 
  10   0   0   0   0   0   0   0   0   0   0   0   0   0   0   0   0   0   4   0   0   0   0   0   0   0   0   0   0   0   4   3 80 79 76 
   6   8   0   0   0   0   0   0   0   0   0   0   0   0   0   0   0   0  10   0   0   0   0   0   0   0   0   0   0   0   0   3 88 83 78 
   2   5   0   5   0   0   4   0   0   0   0   0   0   0   0   0   0   0   0   0   0   0   0   0   0   0   0   0   0   0   0   3 84 81 79 
   9   0   0   0   0   0   0   0   0   0   7   0   7   0   0   0   0   0   4   0   0   0   0   0   5   0   0   0   8   0   0   3 93 87 80 
   5   0   0   0   0   0   0   8   0   0   6   0   0   0  10   0   0   0   0   5   0   0   0   0   0   5   0   0   0   0   4   2 79 76 
   3   0   0   0   0   0   0   0   0   0   0   0   0   0   0   0   0   0   0   6   0   0   0   0   0   0   0   0   0   0   0   2 81 78 
   6   0   0   0   0   5   0   0   0   0   0   0   0   0   0   0   0   0   3   0   0   0   0   0   9   0   0   0   0   0   0   2 85 77 
   9   0   0   0   0   0   0   0   0   6   0   0   0   0   0  10   6   0   0   0   0   6   0   0   0   0   0   0   0   0   0   2 81 78 
   8   0   0   0   0   0   0   0   0   0   0   0   0   0   0   0   0   0   0   0   0   8   0   0   0   0   0   0   0   0   0   2 83 82 
   4   0   0   0   0   0   0   0   0   0   0   0   0   0   0   0   0   0   8   0   0   0   0   0   0   0   0   0   0   5   0   2 86 77 
   9   0   0   0   0   7   0   0   0   0   0   0   0   4   9   0   8   0   0   0   7   0   0   0   0   0   0   0   5   0   0   2 88 78 
   9   4   0   0   0   0   0  10   5   0   0   0   0   0   0   0   0   0   0   0   0   0   0   0   0   0   3   0   0   0   0   1 77 
   9   0   0   0   0   0   0   0   0   0   0   0   0   0   0   0   0   0   7   0   0   4   0   0   0   0   0   0   4   0   0   1 84 
   4   0   0   0   0   0   0   0   0   0   0   0   0   0   6   0   0   0   0   0   0   0   0   0   0   0   0   7   0   0   0   1 86 
   1   0   0   0   0   0   0   0   0   0   0   0   0   5   0   0   0   0   0   0   0   0   0   0   3   0   0   0   0   0   7   1 87 
   7   0   0   0   0   0   0   0   0   0   9   0   0   0   0   0   0   0  10   0   0   0   0   0   0   0   0   0   0   0   0   1 84 
   1   0   0   0   5   0   0   0   0   0   0   9   0   0   0   7   0   0   0   0   0   0   0   4   0   0   0   0   0   0   0   1 102
   3   0   0   0   0   0   0   0   0   8   0   5   0   0   5   0   0   0   0   0   0   0   0   0   8   9   0   0   3   0   0   1 102
   8   0   0   0   0   5   0   0   5   4   0   0   0   0   0   0   0   0   0   0   0   0   0   0   0   0   0   0   0   0  10   1 102
   5   0   0   0   0   0   0   0   0   0   0   0   0   0   0   0   0   7   0   0   0   0   0   0   0   0   0   0   0   0   0   1 102
   4   0   0   0   0   0   0   0   0   0   0   0   0   0   3   0   0   0   0   0   0   0   0   0   0   0   0   0   0   6   0   1 102
   8   0   0   0   0   6   0   3   0   0   0   3   0   7   0   0   0   0   4   0   0   0   0   0   0   0   0   0   0   0   0   1 102
   6   0   0   5   0   0   0   0   0   0   0   0   0   0   0   4   0   0   7   0   0   0   0   0   0   0   0   0   7   0   0   1 102
   5   0   0   0   0   0   0   0   0   0   0   0   0   0   0   0   0   6   0   0   6   0   0   0   0   0   0   7   0   0   0   1 102
   7   0   0   0   0   0   7   0   0   0   0   0   6   0   9   0   0   0   0   0   0   0   0   0   0   0   0   7   0   5   0   1 102
   8   0   0   0   0   0   0   0   0   0   0   0   0   0   0   0   0   0   0   0   0   0   0   0   0   0   0   0   0   0   0   1 102
   4   0   0   0   0   0   0   0   0   0   0   0   0   0   0   0   0   0   0   0   0   0   0   0   0   0   0   0   7   0   0   1 102
   2   0   0   0   0   0   0   0   0   4   0   0   0   0   0   0   0   0   0  10   9   7   0   0   0   0   0   0   0   0   0   1 102
  10   6   0   0   0   0   0   0   8   0   0   5   0   0   0   0   0   0   0   0   0   0   0   0   0   0   0   0   5   0   0   1 102
   1   0   0   0   0   0   0   0   0   0   0   4   0   0   0   0   0   0   0   0   0   5   0   0   0   0   0   0   0   0   0   1 102
   4   0   0   0   0   0   0   0   0   0   0   0   0   0   5   0   0   8   0   0   0   5   0   0   0   0   0   6   0   0   0   1 102
   1   0   3   0   0   0   0   0   8   9   0   0   0   0  10   0   3   6   0   0   0   0   0   0   5   0   0   0   0   0   0   1 102
   6   0   0   0   0   0   0   0   0   6   0   0   0   0   0   0   0   0   0   0   0   0   0   0   0   6   0   6   0   0   6   1 102
   9   0   0   0   0   0   0   0   7   0   0   0   0   0   0   0   0   0   0   0   7   0   8   0   0   0   0   0   0   0   0   1 102
   9   0   0   0   0   0   0   0   0   0   0   0   0   0   0   0   0   0   0   0   0   0   0   0   0   0   0   0   0   0   0   1 102
   1   0   0   8   0   0   0   8   0   0   5   0   0   0   0   0   8   0   0   0   0   0   0   0   0   0   0   0   0   0  10   1 102
   8   0   0   0   0   0   0   0   7   0   0   0   0   0   0   0   0   0   6   0   6   0   0   5   0   0   0   0   0   7   0   1 102
   1   0   0   0   0   0   0   0   0  10   0   0   0   6   0   0   0   0   0   4   0   0   0   0   0   0   0   0   0   0   0   1 102
   5   0   0   0   0   0   0   0   0   0   0   0   0   0   0   0   0   4   0   0   0   0   0   0   0   0   0   0   0   0   0   1 102
   3   0   0   0   0   0   0   0  10   0   0   4   0   0   0   0   0   0   0   1   6   0   0   0   0   0   0   0   0   0   0   1 102
   9   0   0   0   0   0   0   0   6   0   7   0   8   0   0   0   0   0   4   0   6   0   0   0   0   0   0   0   0   0   0   1 102
   4  10   0   0   0   0   6   7   0   0   4   0   0   0   0   0   5   0   0   0   0   0   0   0   0   0   0   0   0   0   5   1 102
   0   0   0   0   0   0   0   0   0   0   0   0   0   0   0   0   0   0   0   0   0   0   0   0   0   0   0   0   0   0   0   0 
